; sat
; result of get-model
((define-fun x () (_ BitVec 32) #x7fffffff);$2147483647$
 (define-fun y () (_ BitVec 32) #x7fffffff);$2147483647$
 (define-fun mid () (_ BitVec 32) #xffffffff);      $-1$
 (define-fun x_1 () Int 2147483647)
 (define-fun y_1 () Int 2147483647)
 (define-fun mid_1 () Int 2147483647))